3
8
20
1 1.3 1.55 1.75 2.1
5 21 23 32 42 38 6 6 37 41 25 24 42 31 30 23 39 29 29 21 16 34 16 6 25 37 35 36 7 41 46 43 23 7 35 27 39 8 22 24 33 12 40 27 41 26 29 27 14 18 28 28 36 22 31 36 32 49 30 30 21 42 22 45 45 28 19 48 10 24 5 35 44 44 33 11 31 41 46 23 7 47 9 22 7 45 15 41 15 6 33 36 37 34 26 13 18 33 21 40 14 29 11 5 7 15 8 16 23 10 41 23 16 13 7 5 32 45 25 36 5 9 13 31 41 16 25 29 6 41 40 5 42 18 29 24 16 48 27 41 38 20 31 49 43 12 31 42 11 46 28 8 6 14 21 32 32 7 23 41 